66
200
139	2
138	1
134	1
133	2
131	1
130	1
129	1
128	1
127	1
126	2
125	3
124	3
122	1
121	1
120	1
118	3
117	3
114	2
113	1
111	1
110	1
108	3
105	1
102	3
96	1
95	2
93	1
92	1
90	1
89	1
88	2
87	2
86	1
85	2
83	2
81	3
79	1
73	1
71	1
70	1
67	2
66	1
65	4
64	2
63	1
62	1
61	1
60	1
59	1
58	2
57	1
56	1
55	1
54	2
53	1
52	1
51	1
50	2
49	1
48	1
47	1
46	1
45	3
43	1
42	2
41	1
